255 255 255 255 255 255 255 255 255 255 255 255 255 255 255 255
255 255 255 255 255 255 255 255 255 255 255 255 255 255 255 255
255 255 255 255 255 255 255 255 255 255 255 255 255 255 255 255
255 255 255 255 255 255 255 255 255 255 255 255 255 255 255 255
255 244 226 232 253 255 255 242 217 237 254 230 227 238 255 255
255 115  65  47 108 255 234  32  84  39 235   4  73  29 221 255
255 112 223 254  14 254  92 213 255 252 252   7 255 235  42 255
255 112 217 225  23 254  27 251 255 255 255   7 255 229  61 255
255 112  65  17 231 252  24 253 255 255 255   2  54  26 242 255
255 112 222 211  77 254  34 243 255 255 255   6 238 246 255 255
255 112 223 254  19 254 131 114 242 176 230   7 255 255 255 255
255 162 234 255 141 236 248 130  71 132 249  85 255 255 255 255
255 255 255 255 255 255 255 255 253 254 255 255 255 255 255 255
255 255 255 255 255 255 255 255 255 255 255 255 255 255 255 255
255 255 255 255 255 255 255 255 255 255 255 255 255 255 255 255
255 255 255 255 255 255 255 255 255 255 255 255 255 255 255 255
255 255 255 255 255 255 255 255 255 255 255 255 255 255 255 255
255 255 255 255 255 255 255 255 255 255 255 255 255 255 255 255
255 255 255 255 255 255 255 255 255 255 255 255 255 255 255 255
255 255 255 255 255 255 255 255 255 255 255 255 255 255 255 255
255 244 226 232 253 255 255 242 217 237 254 230 227 238 255 255
255 115  65  47 108 255 234  32  84  39 235   4  73  29 221 255
255 112 223 254  14 254  92 213 255 252 252   7 255 235  42 255
255 112 217 225  23 254  27 251 255 255 255   7 255 229  61 255
255 112  65  17 231 252  24 253 255 255 255   2  54  26 242 255
255 112 222 211  77 254  34 243 255 255 255   6 238 246 255 255
255 112 223 254  19 254 131 114 242 176 230   7 255 255 255 255
255 162 234 255 141 236 248 130  71 132 249  85 255 255 255 255
255 255 255 255 255 255 255 255 253 254 255 255 255 255 255 255
255 255 255 255 255 255 255 255 255 255 255 255 255 255 255 255
255 255 255 255 255 255 255 255 255 255 255 255 255 255 255 255
255 255 255 255 255 255 255 255 255 255 255 255 255 255 255 255
255 255 255 255 255 255 255 255 255 255 255 255 255 255 255 255
255 255 255 255 255 255 255 255 255 255 255 255 255 255 255 255
255 255 255 255 255 255 255 255 255 255 255 255 255 255 255 255
255 255 255 255 255 255 255 255 255 255 255 255 255 255 255 255
255 244 226 232 253 255 255 242 217 237 254 230 227 238 255 255
255 115  65  47 108 255 234  32  84  39 235   4  73  29 221 255
255 112 223 254  14 254  92 213 255 252 252   7 255 235  42 255
255 112 217 225  23 254  27 251 255 255 255   7 255 229  61 255
255 112  65  17 231 252  24 253 255 255 255   2  54  26 242 255
255 112 222 211  77 254  34 243 255 255 255   6 238 246 255 255
255 112 223 254  19 254 131 114 242 176 230   7 255 255 255 255
255 162 234 255 141 236 248 130  71 132 249  85 255 255 255 255
255 255 255 255 255 255 255 255 253 254 255 255 255 255 255 255
255 255 255 255 255 255 255 255 255 255 255 255 255 255 255 255
255 255 255 255 255 255 255 255 255 255 255 255 255 255 255 255
255 255 255 255 255 255 255 255 255 255 255 255 255 255 255 255

255 255 255 255 255 255 255 255 255 255 255 255 255 255 255 255
255 255 255 255 255 219  48  70 246 255 255 255 255 255 255 255
255 255 255 255 236  32 236 225  23 249 255 255 255 255 255 255
255 255 255 255 223  79 255 254  49 242 255 255 255 255 255 255
255 255 255 255 226   6  11  11   3  10  11  91 255 255 255 255
255 255 255 255 255 238 253 255 255 255 233 251 255 255 255 255
255 255 255 255 235  43 252 255 255 255 170 139 255 255 255 255
255 255 255 255 212  90 255 255 255 255 242  72 253 255 255 255
255 255 255 255 240  33 219 252 254 245 114 133 255 255 255 255
255 255 255 255 255 231  86  27  24  33 128 249 255 255 255 255
255 255 255 255 255 255 255 254 252 255 254 237 255 255 255 255
255 255 255 255 253 108  11  27 238  77  15 141 255 255 255 255
255 255 255 255 229  52 254 218  15 212 255 255 255 255 255 255
255 255 255 255 222  71 225 214  65 224 225 236 255 255 255 255
255 255 255 255 242 111 108 108 108 108 108 161 255 255 255 255
255 255 255 255 255 255 255 255 255 255 255 255 255 255 255 255
255 255 255 255 255 255 255 255 255 255 255 255 255 255 255 255
255 255 255 255 255 219  48  70 246 255 255 255 255 255 255 255
255 255 255 255 236  32 236 225  23 249 255 255 255 255 255 255
255 255 255 255 223  79 255 254  49 242 255 255 255 255 255 255
255 255 255 255 226   6  11  11   3  10  11  91 255 255 255 255
255 255 255 255 255 238 253 255 255 255 233 251 255 255 255 255
255 255 255 255 235  43 252 255 255 255 170 139 255 255 255 255
255 255 255 255 212  90 255 255 255 255 242  72 253 255 255 255
255 255 255 255 240  33 219 252 254 245 114 133 255 255 255 255
255 255 255 255 255 231  86  27  24  33 128 249 255 255 255 255
255 255 255 255 255 255 255 254 252 255 254 237 255 255 255 255
255 255 255 255 253 108  11  27 238  77  15 141 255 255 255 255
255 255 255 255 229  52 254 218  15 212 255 255 255 255 255 255
255 255 255 255 222  71 225 214  65 224 225 236 255 255 255 255
255 255 255 255 242 111 108 108 108 108 108 161 255 255 255 255
255 255 255 255 255 255 255 255 255 255 255 255 255 255 255 255
255 255 255 255 255 255 255 255 255 255 255 255 255 255 255 255
255 255 255 255 255 219  48  70 246 255 255 255 255 255 255 255
255 255 255 255 236  32 236 225  23 249 255 255 255 255 255 255
255 255 255 255 223  79 255 254  49 242 255 255 255 255 255 255
255 255 255 255 226   6  11  11   3  10  11  91 255 255 255 255
255 255 255 255 255 238 253 255 255 255 233 251 255 255 255 255
255 255 255 255 235  43 252 255 255 255 170 139 255 255 255 255
255 255 255 255 212  90 255 255 255 255 242  72 253 255 255 255
255 255 255 255 240  33 219 252 254 245 114 133 255 255 255 255
255 255 255 255 255 231  86  27  24  33 128 249 255 255 255 255
255 255 255 255 255 255 255 254 252 255 254 237 255 255 255 255
255 255 255 255 253 108  11  27 238  77  15 141 255 255 255 255
255 255 255 255 229  52 254 218  15 212 255 255 255 255 255 255
255 255 255 255 222  71 225 214  65 224 225 236 255 255 255 255
255 255 255 255 242 111 108 108 108 108 108 161 255 255 255 255
255 255 255 255 255 255 255 255 255 255 255 255 255 255 255 255

255 255 255 255 255 255 255 255 255 255 255 255 255 255 255 255
255 255 255 255 255 255 255 255 255 255 255 255 255 255 255 255
255 255 255 255 255 255 255 255 255 255 255 255 255 255 255 255
255 255 255 255 255 255 255 253 255 255 255 255 255 255 255 255
255 255 255 255  91 251 139  72 133 249 237 141 255 236 161 255
255 255 255 255  11 233 170 242 114 128 254  15 255 225 108 255
255 255 249 242  10 255 255 255 245  33 255  77 212 224 108 255
255 246  23  49   3 255 255 255 254  24 252 238  15  65 108 255
255  70 225 254  11 255 255 255 252  27 254  27 218 214 108 255
255  48 236 255  11 253 252 255 219  86 255  11 254 225 108 255
255 219  32  79   6 238  43  90  33 231 255 108  52  71 111 255
255 255 236 223 226 255 235 212 240 255 255 253 229 222 242 255
255 255 255 255 255 255 255 255 255 255 255 255 255 255 255 255
255 255 255 255 255 255 255 255 255 255 255 255 255 255 255 255
255 255 255 255 255 255 255 255 255 255 255 255 255 255 255 255
255 255 255 255 255 255 255 255 255 255 255 255 255 255 255 255
255 255 255 255 255 255 255 255 255 255 255 255 255 255 255 255
255 255 255 255 255 255 255 255 255 255 255 255 255 255 255 255
255 255 255 255 255 255 255 255 255 255 255 255 255 255 255 255
255 255 255 255 255 255 255 253 255 255 255 255 255 255 255 255
255 255 255 255  91 251 139  72 133 249 237 141 255 236 161 255
255 255 255 255  11 233 170 242 114 128 254  15 255 225 108 255
255 255 249 242  10 255 255 255 245  33 255  77 212 224 108 255
255 246  23  49   3 255 255 255 254  24 252 238  15  65 108 255
255  70 225 254  11 255 255 255 252  27 254  27 218 214 108 255
255  48 236 255  11 253 252 255 219  86 255  11 254 225 108 255
255 219  32  79   6 238  43  90  33 231 255 108  52  71 111 255
255 255 236 223 226 255 235 212 240 255 255 253 229 222 242 255
255 255 255 255 255 255 255 255 255 255 255 255 255 255 255 255
255 255 255 255 255 255 255 255 255 255 255 255 255 255 255 255
255 255 255 255 255 255 255 255 255 255 255 255 255 255 255 255
255 255 255 255 255 255 255 255 255 255 255 255 255 255 255 255
255 255 255 255 255 255 255 255 255 255 255 255 255 255 255 255
255 255 255 255 255 255 255 255 255 255 255 255 255 255 255 255
255 255 255 255 255 255 255 255 255 255 255 255 255 255 255 255
255 255 255 255 255 255 255 253 255 255 255 255 255 255 255 255
255 255 255 255  91 251 139  72 133 249 237 141 255 236 161 255
255 255 255 255  11 233 170 242 114 128 254  15 255 225 108 255
255 255 249 242  10 255 255 255 245  33 255  77 212 224 108 255
255 246  23  49   3 255 255 255 254  24 252 238  15  65 108 255
255  70 225 254  11 255 255 255 252  27 254  27 218 214 108 255
255  48 236 255  11 253 252 255 219  86 255  11 254 225 108 255
255 219  32  79   6 238  43  90  33 231 255 108  52  71 111 255
255 255 236 223 226 255 235 212 240 255 255 253 229 222 242 255
255 255 255 255 255 255 255 255 255 255 255 255 255 255 255 255
255 255 255 255 255 255 255 255 255 255 255 255 255 255 255 255
255 255 255 255 255 255 255 255 255 255 255 255 255 255 255 255
255 255 255 255 255 255 255 255 255 255 255 255 255 255 255 255

255 255 255 255 255 255 255 255 255 255 255 255 255 255 255 255
255 255 255 255 161 108 108 108 108 108 111 242 255 255 255 255
255 255 255 255 236 225 224  65 214 225  71 222 255 255 255 255
255 255 255 255 255 255 212  15 218 254  52 229 255 255 255 255
255 255 255 255 141  15  77 238  27  11 108 253 255 255 255 255
255 255 255 255 237 254 255 252 254 255 255 255 255 255 255 255
255 255 255 255 249 128  33  24  27  86 231 255 255 255 255 255
255 255 255 255 133 114 245 254 252 219  33 240 255 255 255 255
255 255 255 253  72 242 255 255 255 255  90 212 255 255 255 255
255 255 255 255 139 170 255 255 255 252  43 235 255 255 255 255
255 255 255 255 251 233 255 255 255 253 238 255 255 255 255 255
255 255 255 255  91  11  10   3  11  11   6 226 255 255 255 255
255 255 255 255 255 255 242  49 254 255  79 223 255 255 255 255
255 255 255 255 255 255 249  23 225 236  32 236 255 255 255 255
255 255 255 255 255 255 255 246  70  48 219 255 255 255 255 255
255 255 255 255 255 255 255 255 255 255 255 255 255 255 255 255
255 255 255 255 255 255 255 255 255 255 255 255 255 255 255 255
255 255 255 255 161 108 108 108 108 108 111 242 255 255 255 255
255 255 255 255 236 225 224  65 214 225  71 222 255 255 255 255
255 255 255 255 255 255 212  15 218 254  52 229 255 255 255 255
255 255 255 255 141  15  77 238  27  11 108 253 255 255 255 255
255 255 255 255 237 254 255 252 254 255 255 255 255 255 255 255
255 255 255 255 249 128  33  24  27  86 231 255 255 255 255 255
255 255 255 255 133 114 245 254 252 219  33 240 255 255 255 255
255 255 255 253  72 242 255 255 255 255  90 212 255 255 255 255
255 255 255 255 139 170 255 255 255 252  43 235 255 255 255 255
255 255 255 255 251 233 255 255 255 253 238 255 255 255 255 255
255 255 255 255  91  11  10   3  11  11   6 226 255 255 255 255
255 255 255 255 255 255 242  49 254 255  79 223 255 255 255 255
255 255 255 255 255 255 249  23 225 236  32 236 255 255 255 255
255 255 255 255 255 255 255 246  70  48 219 255 255 255 255 255
255 255 255 255 255 255 255 255 255 255 255 255 255 255 255 255
255 255 255 255 255 255 255 255 255 255 255 255 255 255 255 255
255 255 255 255 161 108 108 108 108 108 111 242 255 255 255 255
255 255 255 255 236 225 224  65 214 225  71 222 255 255 255 255
255 255 255 255 255 255 212  15 218 254  52 229 255 255 255 255
255 255 255 255 141  15  77 238  27  11 108 253 255 255 255 255
255 255 255 255 237 254 255 252 254 255 255 255 255 255 255 255
255 255 255 255 249 128  33  24  27  86 231 255 255 255 255 255
255 255 255 255 133 114 245 254 252 219  33 240 255 255 255 255
255 255 255 253  72 242 255 255 255 255  90 212 255 255 255 255
255 255 255 255 139 170 255 255 255 252  43 235 255 255 255 255
255 255 255 255 251 233 255 255 255 253 238 255 255 255 255 255
255 255 255 255  91  11  10   3  11  11   6 226 255 255 255 255
255 255 255 255 255 255 242  49 254 255  79 223 255 255 255 255
255 255 255 255 255 255 249  23 225 236  32 236 255 255 255 255
255 255 255 255 255 255 255 246  70  48 219 255 255 255 255 255
255 255 255 255 255 255 255 255 255 255 255 255 255 255 255 255
